sat
((N 15)
 (0 0)
 (1 1)
 ((B 0 1 4) 1)
 ((B 0 1 3) 2)
 ((B 0 1 2) 3)
 ((B 0 1 1) 4)
 (0 0)
 (2 2)
 ((B 0 2 4) 0)
 ((B 0 2 3) 0)
 ((B 0 2 2) 0)
 ((B 0 2 1) 0)
 (0 0)
 (3 3)
 ((B 0 3 4) 0)
 ((B 0 3 3) 0)
 ((B 0 3 2) 0)
 ((B 0 3 1) 0)
 (1 1)
 (1 1)
 ((B 1 1 4) 0)
 ((B 1 1 3) 2)
 ((B 1 1 2) 3)
 ((B 1 1 1) 4)
 (1 1)
 (2 2)
 ((B 1 2 4) 0)
 ((B 1 2 3) 0)
 ((B 1 2 2) 0)
 ((B 1 2 1) 1)
 (1 1)
 (3 3)
 ((B 1 3 4) 0)
 ((B 1 3 3) 0)
 ((B 1 3 2) 0)
 ((B 1 3 1) 0)
 (2 2)
 (1 1)
 ((B 2 1 4) 0)
 ((B 2 1 3) 0)
 ((B 2 1 2) 3)
 ((B 2 1 1) 4)
 (2 2)
 (2 2)
 ((B 2 2 4) 0)
 ((B 2 2 3) 0)
 ((B 2 2 2) 0)
 ((B 2 2 1) 1)
 (2 2)
 (3 3)
 ((B 2 3 4) 0)
 ((B 2 3 3) 0)
 ((B 2 3 2) 0)
 ((B 2 3 1) 2)
 (3 3)
 (1 1)
 ((B 3 1 4) 0)
 ((B 3 1 3) 0)
 ((B 3 1 2) 3)
 ((B 3 1 1) 4)
 (3 3)
 (2 2)
 ((B 3 2 4) 0)
 ((B 3 2 3) 0)
 ((B 3 2 2) 0)
 ((B 3 2 1) 0)
 (3 3)
 (3 3)
 ((B 3 3 4) 0)
 ((B 3 3 3) 0)
 ((B 3 3 2) 1)
 ((B 3 3 1) 2)
 (4 4)
 (1 1)
 ((B 4 1 4) 0)
 ((B 4 1 3) 0)
 ((B 4 1 2) 0)
 ((B 4 1 1) 4)
 (4 4)
 (2 2)
 ((B 4 2 4) 0)
 ((B 4 2 3) 0)
 ((B 4 2 2) 0)
 ((B 4 2 1) 3)
 (4 4)
 (3 3)
 ((B 4 3 4) 0)
 ((B 4 3 3) 0)
 ((B 4 3 2) 1)
 ((B 4 3 1) 2)
 (5 5)
 (1 1)
 ((B 5 1 4) 0)
 ((B 5 1 3) 0)
 ((B 5 1 2) 1)
 ((B 5 1 1) 4)
 (5 5)
 (2 2)
 ((B 5 2 4) 0)
 ((B 5 2 3) 0)
 ((B 5 2 2) 0)
 ((B 5 2 1) 3)
 (5 5)
 (3 3)
 ((B 5 3 4) 0)
 ((B 5 3 3) 0)
 ((B 5 3 2) 0)
 ((B 5 3 1) 2)
 (6 6)
 (1 1)
 ((B 6 1 4) 0)
 ((B 6 1 3) 0)
 ((B 6 1 2) 1)
 ((B 6 1 1) 4)
 (6 6)
 (2 2)
 ((B 6 2 4) 0)
 ((B 6 2 3) 0)
 ((B 6 2 2) 2)
 ((B 6 2 1) 3)
 (6 6)
 (3 3)
 ((B 6 3 4) 0)
 ((B 6 3 3) 0)
 ((B 6 3 2) 0)
 ((B 6 3 1) 0)
 (7 7)
 (1 1)
 ((B 7 1 4) 0)
 ((B 7 1 3) 0)
 ((B 7 1 2) 0)
 ((B 7 1 1) 4)
 (7 7)
 (2 2)
 ((B 7 2 4) 0)
 ((B 7 2 3) 1)
 ((B 7 2 2) 2)
 ((B 7 2 1) 3)
 (7 7)
 (3 3)
 ((B 7 3 4) 0)
 ((B 7 3 3) 0)
 ((B 7 3 2) 0)
 ((B 7 3 1) 0))
 (8 8)
 (1 1)
 ((B 8 1 4) 0)
 ((B 8 1 3) 0)
 ((B 8 1 2) 0)
 ((B 8 1 1) 0)
 (8 8)
 (2 2)
 ((B 8 2 4) 0)
 ((B 8 2 3) 1)
 ((B 8 2 2) 2)
 ((B 8 2 1) 3)
 (8 8)
 (3 3)
 ((B 8 3 4) 0)
 ((B 8 3 3) 0)
 ((B 8 3 2) 0)
 ((B 8 3 1) 4)
 (9 9)
 (1 1)
 ((B 9 1 4) 0)
 ((B 9 1 3) 0)
 ((B 9 1 2) 0)
 ((B 9 1 1) 0)
 (9 9)
 (2 2)
 ((B 9 2 4) 0)
 ((B 9 2 3) 0)
 ((B 9 2 2) 2)
 ((B 9 2 1) 3)
 (9 9)
 (3 3)
 ((B 9 3 4) 0)
 ((B 9 3 3) 0)
 ((B 9 3 2) 1)
 ((B 9 3 1) 4)
 (10 10)
 (1 1)
 ((B 10 1 4) 0)
 ((B 10 1 3) 0)
 ((B 10 1 2) 0)
 ((B 10 1 1) 2)
 (10 10)
 (2 2)
 ((B 10 2 4) 0)
 ((B 10 2 3) 0)
 ((B 10 2 2) 0)
 ((B 10 2 1) 3)
 (10 10)
 (3 3)
 ((B 10 3 4) 0)
 ((B 10 3 3) 0)
 ((B 10 3 2) 1)
 ((B 10 3 1) 4)
 (11 11)
 (1 1)
 ((B 11 1 4) 0)
 ((B 11 1 3) 0)
 ((B 11 1 2) 1)
 ((B 11 1 1) 2)
 (11 11)
 (2 2)
 ((B 11 2 4) 0)
 ((B 11 2 3) 0)
 ((B 11 2 2) 0)
 ((B 11 2 1) 3)
 (11 11)
 (3 3)
 ((B 11 3 4) 0)
 ((B 11 3 3) 0)
 ((B 11 3 2) 0)
 ((B 11 3 1) 4)
 (12 12)
 (1 1)
 ((B 12 1 4) 0)
 ((B 12 1 3) 0)
 ((B 12 1 2) 1)
 ((B 12 1 1) 2)
 (12 12)
 (2 2)
 ((B 12 2 4) 0)
 ((B 12 2 3) 0)
 ((B 12 2 2) 0)
 ((B 12 2 1) 0)
 (12 12)
 (3 3)
 ((B 12 3 4) 0)
 ((B 12 3 3) 0)
 ((B 12 3 2) 3)
 ((B 12 3 1) 4)
 (13 13)
 (1 1)
 ((B 13 1 4) 0)
 ((B 13 1 3) 0)
 ((B 13 1 2) 0)
 ((B 13 1 1) 2)
 (13 13)
 (2 2)
 ((B 13 2 4) 0)
 ((B 13 2 3) 0)
 ((B 13 2 2) 0)
 ((B 13 2 1) 1)
 (13 13)
 (3 3)
 ((B 13 3 4) 0)
 ((B 13 3 3) 0)
 ((B 13 3 2) 3)
 ((B 13 3 1) 4)
 (14 14)
 (1 1)
 ((B 14 1 4) 0)
 ((B 14 1 3) 0)
 ((B 14 1 2) 0)
 ((B 14 1 1) 0)
 (14 14)
 (2 2)
 ((B 14 2 4) 0)
 ((B 14 2 3) 0)
 ((B 14 2 2) 0)
 ((B 14 2 1) 1)
 (14 14)
 (3 3)
 ((B 14 3 4) 0)
 ((B 14 3 3) 2)
 ((B 14 3 2) 3)
 ((B 14 3 1) 4)
 (15 15)
 (1 1)
 ((B 15 1 4) 0)
 ((B 15 1 3) 0)
 ((B 15 1 2) 0)
 ((B 15 1 1) 0)
 (15 15)
 (2 2)
 ((B 15 2 4) 0)
 ((B 15 2 3) 0)
 ((B 15 2 2) 0)
 ((B 15 2 1) 0)
 (15 15)
 (3 3)
 ((B 15 3 4) 1)
 ((B 15 3 3) 2)
 ((B 15 3 2) 3)
 ((B 15 3 1) 4))
